c --- [ banner ] -------------------------------------------------------------
c 
c CaDiCaL Radically Simplified CDCL SAT Solver
c Copyright (c) 2016-2021 A. Biere, M. Fleury, N. Froleyks
c 
c Version 1.5.2 9c38a080b32c28d805e8e6ca21849856b0cda605
c g++ (Ubuntu 7.5.0-3ubuntu1~18.04) 7.5.0 -Wall -Wextra -O3 -DNDEBUG
c Wed Feb 16 23:15:36 EST 2022 Linux fac-vanhoeve01 5.4.0-99-generic x86_64
c 
c --- [ limit ] --------------------------------------------------------------
c 
c setting time limit to 600 seconds real time (due to '-t 600')
c setting conflict limit to 1000000000 conflicts (due to '1000000000')
c 
c --- [ parsing input ] ------------------------------------------------------
c 
c reading DIMACS file from 'ddfwcnfs/r1000.5.col_234.cnf'
c opening file to read 'ddfwcnfs/r1000.5.col_234.cnf'
c found 'p cnf 234000 35431408' header
c parsed 35431408 clauses in 24.14 seconds process time
c closing file 'ddfwcnfs/r1000.5.col_234.cnf'
c after reading 604318885 bytes 576.3 MB
c 
c --- [ options ] ------------------------------------------------------------
c 
c all options are set to their default value
c 
c --- [ solving ] ------------------------------------------------------------
c 
c time measured in process time since initialization
c 
c  seconds    reductions  redundant   irredundant
c          MB     restarts       trail         variables
c            level   conflicts       glue            remaining
c 
c * 24.14 2880  0 0   0    0    0  0% 0 35300715 178751 76%
c { 24.19 2882  0 0   0    0    0  0% 0 35300715 178751 76%
c - 30.81 2887 227 1   0  300  218 72% 20 35241337 178751 76%
c } 31.51 2887 116 1   7 1000  747 48% 17 35241337 178751 76%
c [ 31.51 2887  0 1   7 1000  747  0% 0 35241337 178751 76%
c O 31.52 2887 77 1   7 1002  749 34% 2 35241337 178751 76%
c - 51.31 3695 151 2   8 2432 1737 44% 36 35241337 178751 76%
c ] 51.62 3695 167 2   8 3001 2197 46% 47 35241337 178751 76%
c { 51.62 3695 116 2   8 3001 2197 48% 17 35241337 178751 76%
c F 73.61 3697 116 2   8 3003 2199  2% 17 35241337 178751 76%
c p 112.72 3704 115 2 322 5000 3661 16% 27 35241337 178751 76%
c - 140.17 3704 109 3 461 5625 3022 17% 29 35241337 178751 76%
c # 141.04 3704 109 3 530 6004 3348 17% 30 35241337 178751 76%
c } 142.60 3704 104 3 747 7001 4089 17% 32 35241337 178751 76%
c [ 142.60 3704 167 3 747 7001 4089 60% 47 35241337 178751 76%
c - 161.65 3705 152 4 749 9883 4415 39% 55 35241337 178751 76%
c I 161.74 3705 153 4 749 10005 4525 39% 55 35241337 178751 76%
c ] 163.37 3705 278 4 752 15001 8589 26% 45 35241337 178751 76%
c { 163.37 3705 104 4 752 15001 8589 17% 32 35241337 178751 76%
c p 196.44 3705 104 4 753 15001 8599 17% 32 35241337 178751 76%
c 
c  seconds      reductions   redundant    irredundant
c           MB      restarts        trail          variables
c              level    conflicts       glue             remaining
c 
c B 204.52 3705 105 4 753 15009 8606 17% 32 35241337 178751 76%
c - 221.78 3705 106 5 770 15204 5652 17% 32 35241337 178751 76%
c s 236.83 3707 106 5 779 15252 5602 17% 33 35241337 178751 76%
c w 286.64 3708 106 5 779 15252 5600 17% 33 35241337 178751 76%
c e 320.24 4041 106 5 779 15252 5592 17% 33 17779453 119109 51%
c s 321.05 4041 106 5 779 15252 5565 17% 33 17779453 119109 51%
c ^ 327.44 4041 106 5 779 15252 5565 17% 33 17779453 119109 51%
c W 359.01 3508 92 5 1493 21010 9489 22% 34 17779453 119109 51%
c - 368.15 3508 91 6 1561 21589 6371 23% 34 17779453 119109 51%
c F 371.18 3508 91 6 1971 28011 11179 22% 33 17779453 119109 51%
c - 379.90 3509 90 7 2025 28414 7075 22% 33 17779453 119109 51%
c p 397.93 3509 87 7 2314 30001 7968 21% 33 17779453 119109 51%
c } 402.55 3509 84 7 2386 31002 8394 21% 33 17779453 119109 51%
c [ 402.55 3509 278 7 2386 31002 8394 38% 45 17779453 119109 51%
c B 404.21 3509 197 7 2389 36013 10919 30% 43 17779453 119109 51%
c - 412.73 3508 205 8 2389 36215 6016 30% 43 17779453 119109 51%
c s 417.84 3508 254 8 2393 44142 12152 35% 61 17779453 119109 51%
c w 440.66 3508 254 8 2393 44142 12148 35% 61 17779453 119109 51%
c s 450.37 3508 254 8 2393 44142 12136 35% 61 17779453 119109 51%
c ^ 455.34 3508 254 8 2393 44142 12136 35% 61 17779453 119109 51%
c 
c  seconds      reductions    redundant    irredundant
c           MB      restarts         trail          variables
c              level     conflicts       glue             remaining
c 
c - 465.29 3514 256 9 2393 44991 8917 36% 64 17779453 119109 51%
c W 490.83 3514 257 9 2393 45017 8942 36% 65 17779453 119109 51%
c p 510.20 3514 270 9 2394 50004 13061 40% 72 17779453 119109 51%
c - 524.29 3512 248 10 2395 54741 10020 39% 76 17779453 119109 51%
c O 524.39 3512 247 10 2395 55019 10205 39% 76 17779453 119109 51%
c ] 528.10 3512 222 10 2401 63006 16203 39% 75 17779453 119109 51%
c { 528.10 3512 84 10 2401 63006 16203 21% 33 17779453 119109 51%
c - 537.63 3511 85 11 2479 65465 11313 22% 33 17779453 119109 51%
c B 537.73 3511 85 11 2479 66021 11800 22% 33 17779453 119109 51%
c p 559.03 3511 88 11 3357 75004 17968 22% 32 17779453 119109 51%
c - 574.12 3510 88 12 3587 77166 11784 22% 32 17779453 119109 51%
c W 594.57 3510 87 12 3808 78023 12211 22% 33 17779453 119109 51%
c } 599.93 3510 86 12 4635 85698 18048 22% 33 17779453 119109 51%
c ? 599.93 3510 86 12 4635 85698 18048 22% 33 17779453 119109 51%
c 
c --- [ result ] -------------------------------------------------------------
c 
c UNKNOWN
c 
c --- [ run-time profiling ] -------------------------------------------------
c 
c process time taken by individual solving procedures
c (percentage relative to process time for solving)
c 
c       309.54   53.76% search
c       266.25   46.24% simplify
c       159.01   27.62% unstable
c        91.51   15.89% stable
c        71.47   12.41% ternary
c        58.96   10.24% walk
c        56.02    9.73% vivify
c        41.07    7.13% elim
c        24.14    4.19% parse
c        16.72    2.90% subsume
c         6.57    1.14% probe
c         0.05    0.01% lucky
c   =================================
c       575.79   95.98% solve
c 
c last line shows process time for solving
c (percentage relative to total process time)
c 
c --- [ statistics ] ---------------------------------------------------------
c 
c chronological:             22576        26.34 %  of conflicts
c conflicts:                 85698       148.84    per second
c decisions:                327648       569.04    per second
c eliminated:                59642        25.49 %  of all variables
c fixed:                     55249        23.61 %  of all variables
c learned:                   84523        98.63 %  per conflict
c learned_lits:           16436561       100.00 %  learned literals
c minimized:                     0         0.00 %  learned literals
c shrunken:                7836124        47.67 %  learned literals
c minishrunken:             458424         2.79 %  learned literals
c propagations:          145890334         0.25 M  per second
c reduced:                   43933        51.26 %  per conflict
c rephased:                     12      7141.50    interval
c restarts:                   4635        18.49    interval
c stabilizing:                   3        49.02 %  of conflicts
c subsumed:                  22530         0.03 %  of all clauses
c strengthened:               1370         0.00 %  of all clauses
c vivified:                     13         0.00 %  of all clauses
c walked:                        3     28566.00    interval
c weakened:               17462469         2.00    average size
c 
c seconds are measured in process time for solving
c 
c --- [ resources ] ----------------------------------------------------------
c 
c total process time since initialization:       599.93    seconds
c total real time since initialization:          600.00    seconds
c maximum resident set size of process:         4782.35    MB
c 
c --- [ shutting down ] ------------------------------------------------------
c 
c exit 0
